100 5
25 200
10
7
13
19
26
3
5
9
16
16
12
19
23
20
8
19
2
12
17
9
11
18
29
3
6
17
16
16
9
21
27
23
11
14
8
5
8
16
31
9
5
5
7
18
16
1
27
36
30
13
10
9
14
18
2
6
7
18
28
3
13
19
10
9
20
25
25
36
6
5
15
25
9
8
18
13
14
3
23
6
26
16
11
7
41
35
26
9
15
3
1
2
22
27
20
11
12
10
9
17
35 35 0 230 0 0
41 49 161 171 10 3
35 17 50 60 10 3
55 45 116 126 10 2
55 20 149 159 10 2
15 30 34 44 10 2
25 30 99 109 10 1
20 50 81 91 10 3
10 43 95 105 10 2
55 60 97 107 10 1
30 60 124 134 10 2
20 65 67 77 10 1
50 35 63 73 10 2
30 25 159 169 10 3
15 10 32 42 10 3
30 5 61 71 10 1
10 20 75 85 10 3
5 30 157 167 10 1
20 40 87 97 10 3
15 60 76 86 10 3
45 65 126 136 10 3
45 20 62 72 10 1
45 10 97 107 10 3
55 5 68 78 10 1
65 35 153 163 10 1
65 20 172 182 10 2
45 30 132 142 10 1
35 40 37 47 10 3
41 37 39 49 10 1
64 42 63 73 10 3
40 60 71 81 10 1
31 52 50 60 10 1
35 69 141 151 10 1
53 52 37 47 10 2
65 55 117 127 10 1
63 65 143 153 10 2
2 60 41 51 10 3
20 20 134 144 10 1
5 5 83 93 10 2
60 12 44 54 10 1
40 25 85 95 10 1
42 7 97 107 10 1
24 12 31 41 10 2
23 3 132 142 10 2
11 14 69 79 10 2
6 38 32 42 10 1
2 48 117 127 10 3
8 56 51 61 10 3
13 52 165 175 10 2
6 68 108 118 10 1
47 47 124 134 10 1
49 58 88 98 10 2
27 43 52 62 10 2
37 31 95 105 10 1
57 29 140 150 10 3
63 23 136 146 10 2
53 12 130 140 10 2
32 12 101 111 10 1
36 26 200 210 10 3
21 24 18 28 10 2
17 34 162 172 10 2
12 24 76 86 10 2
24 58 58 68 10 1
27 69 34 44 10 1
15 77 73 83 10 2
62 77 51 61 10 2
49 73 127 137 10 1
67 5 83 93 10 2
56 39 142 152 10 2
37 47 50 60 10 3
37 56 182 192 10 3
57 68 77 87 10 2
47 16 35 45 10 1
44 17 78 88 10 1
46 13 149 159 10 2
49 11 69 79 10 2
49 42 73 83 10 3
53 43 179 189 10 1
61 52 96 106 10 2
57 48 92 102 10 2
56 37 182 192 10 1
55 54 94 104 10 3
15 47 55 65 10 2
14 37 44 54 10 2
11 31 101 111 10 3
16 22 91 101 10 1
4 18 94 104 10 2
28 18 93 103 10 3
26 52 74 84 10 3
26 35 176 186 10 2
31 67 95 105 10 1
15 19 160 170 10 2
22 22 18 28 10 3
18 24 188 198 10 3
26 27 100 110 10 2
25 24 39 49 10 3
22 27 135 145 10 1
25 21 133 143 10 3
19 21 58 68 10 1
20 26 83 93 10 3
18 18 185 195 10 3
26 36 0 230 5 4
38 23 0 230 5 4
16 4 0 230 5 4
41 40 0 230 5 4
4 33 0 230 5 4
0 0 0 1 0
0 1 0 0 0
0 0 0 1 0
0 1 0 0 0
0 0 0 0 1
0 0 0 0 0
1 0 0 0 0
0 0 0 0 1
0 0 0 0 0
0 0 0 1 0
0 0 0 0 0
0 0 0 1 0
0 1 0 0 0
0 0 1 0 0
0 0 0 0 0
0 0 0 0 1
0 0 0 0 0
1 0 0 0 0
1 0 0 0 0
0 0 0 1 0
0 0 0 0 0
0 1 0 0 0
0 0 0 0 0
0 0 0 0 0
0 1 0 0 0
0 0 0 0 0
0 0 0 1 0
0 0 0 0 0
0 0 0 1 0
0 0 0 0 0
0 0 0 0 0
0 0 0 0 0
0 0 0 1 0
0 0 0 0 0
0 0 0 1 0
0 0 0 0 1
0 0 0 0 0
0 0 1 0 0
0 0 0 0 0
0 0 0 0 0
0 0 0 0 0
0 0 1 0 0
0 0 1 0 0
0 0 1 0 0
0 0 0 0 0
0 0 0 0 1
0 0 0 0 1
1 0 0 0 0
0 0 0 0 0
0 0 0 0 0
0 0 0 1 0
1 0 0 0 0
0 0 0 0 0
0 0 0 1 0
0 1 0 0 0
0 1 0 0 0
0 0 0 0 0
0 1 0 0 0
1 0 0 0 0
1 0 0 0 0
0 0 0 0 1
0 0 0 0 0
0 0 0 0 0
1 0 0 0 0
0 0 0 1 0
0 0 0 0 0
0 1 0 0 0
0 0 0 1 0
0 0 0 1 0
0 0 0 1 0
0 0 0 1 0
0 0 0 0 0
0 0 0 0 0
0 1 0 0 0
0 1 0 0 0
0 0 0 1 0
0 0 0 0 0
0 0 0 1 0
0 0 0 1 0
0 0 0 0 0
0 0 0 1 0
1 0 0 0 0
0 0 0 0 1
0 0 0 0 1
0 0 0 0 0
0 0 0 0 1
0 1 0 0 0
1 0 0 0 0
1 0 0 0 0
0 0 0 0 0
0 0 1 0 0
1 0 0 0 0
1 0 0 0 0
1 0 0 0 0
1 0 0 0 0
0 0 0 0 0
0 1 0 0 0
0 0 0 0 0
1 0 0 0 0
0 0 1 0 0
